NAME: wi29
COMMENT: Quick (5min) local search tour for wi29 (29035.51207978889)
TYPE: TOUR
DIMENSION: 29
TOUR_SECTION: 1 2 5 4 8 3 7 9 14 17 20 16 24 27 25 26 28 29 21 23 22 18 19 15 13 12 10 11 6 -1
EOF